Optimal - objective value 69.00000000
      0 x....001              36                       0
      2 x....003               3                       0
      5 x....006               2         0.00032797638570023
      7 x....008             179                       0
      8 x....009             178                       0
     11 x....012             138                       0
     13 x....014             138                       0
     17 x....018             138                       0
     20 x....021              50         0.00032797638570023
     26 x....027              48                       0
     27 x....028              47                       0
     34 x....035              20                       0
     40 x....041               6         0.00032797638570023
     41 x....042               6                       0
     54 x....055             495         0.00032797638570023
     55 x....056             494                       0
     56 x....057             450                       0
     62 x....063             449                       0
     68 x....069             449                       0
     69 x....070             449                       0
     70 x....071             531                       0
     73 x....074             530                       0
     76 x....077            1133                       0
     78 x....079               1                       0
     79 x....080            1134                       0
     83 x....084            1135                       0
     84 x....085            1135                       0
     88 x....089            1135                       0
     89 x....090            1135                       0
    108 x....109               5                       0
    109 x....110               5                       0
    118 x....119               1                       0
    125 x....126               1                       0
    126 x....127               1                       0
    131 x....132               1                       0
    132 x....133               1                       0
    143 x....144               1                       0
    144 x....145             465                       0
    145 x....146               1                       0
    147 x....148             376                       0
    148 x....149               2         0.00032797638570023
    150 x....151               2                       0
    153 x....154             121         0.00032797638570023
    156 x....157               1                       0
    171 x....172              77                       0
    173 x....174              77                       0
    179 x....180              66                       0
    183 x....184              66                       0
    185 x....186              66                       0
    196 x....197            1567                       0
    197 x....198            1575                       0
    208 x....209            1573                       0
    209 x....210            1572                       0
    213 x....214            1594                       0
    214 x....215            1593                       0
    219 x....220               1                       0
    240 x....241             272                       0
    241 x....242             247                       0
    244 x....245             162                       0
    245 x....246             160                       0
    249 x....250             149                       0
    270 x....271               1                       0
    279 x....280             150                       0
    280 x....281             143                       0
    282 x....283             110                       0
    287 x....288             108                       0
    293 x....294             106                       0
    296 x....297             106                       0
    299 x....300             106                       0
    300 y....001               1                       1
    302 y....003               1                       1
    305 y....006               1                       1
    307 y....008               1                       1
    308 y....009               1                       1
    311 y....012               1                       1
    313 y....014               1                       1
    317 y....018               1                       1
    320 y....021               1                       1
    326 y....027               1                       1
    327 y....028               1                       1
    334 y....035               1                       1
    340 y....041               1                       1
    341 y....042               1                       1
    354 y....055               1                       1
    355 y....056               1                       1
    356 y....057               1                       1
    362 y....063               1                       1
    368 y....069               1                       1
    369 y....070               1                       1
    370 y....071               1                       1
    373 y....074               1                       1
    376 y....077               1                       1
    378 y....079               1                       1
    379 y....080               1                       1
    383 y....084               1                       1
    384 y....085               1                       1
    388 y....089               1                       1
    389 y....090               1                       1
    408 y....109               1                       1
    409 y....110               1                       1
    418 y....119               1                       1
    425 y....126               1                       1
    426 y....127               1                       1
    431 y....132               1                       1
    432 y....133               1                       1
    443 y....144               1                       1
    444 y....145               1                       1
    445 y....146               1                       1
    447 y....148               1                       1
    448 y....149               1                       1
    450 y....151               1                       1
    453 y....154               1                       1
    456 y....157               1                       1
    471 y....172               1                       1
    473 y....174               1                       1
    479 y....180               1                       1
    483 y....184               1                       1
    485 y....186               1                       1
    496 y....197               1                       1
    497 y....198               1                       1
    508 y....209               1                       1
    509 y....210               1                       1
    513 y....214               1                       1
    514 y....215               1                       1
    519 y....220               1                       1
    540 y....241               1                       1
    541 y....242               1                       1
    544 y....245               1                       1
    545 y....246               1                       1
    549 y....250               1                       1
    570 y....271               1                       1
    579 y....280               1                       1
    580 y....281               1                       1
    582 y....283               1                       1
    587 y....288               1                       1
    593 y....294               1                       1
    596 y....297               1                       1
    599 y....300               1                       1
